Traveling Salesman Problem/TSP_generados/Aleatorio1620390973_11.tsp
NAME: Aleatorio1620390973_11.tsp
COMMENT: Randomly generated scenario
TYPE: TSP
DIMENSION: 11
EDGE_WEIGHT_TYPE: ATT
NODE_COORD_SECTION
1 5.14 9.5
2 4.0 8.03
3 4.96 20.93
4 7.98 31.97
5 12.1 23.14
6 4.41 5.38
7 21.74 24.47
8 42.12 32.76
9 43.62 22.24
10 46.17 3.74
11 5.83 6.28
