Traveling Salesman Problem/TSP_generados/Aleatorio1620390973_11.opt.tour
NAME: Aleatorio1620390973_11.opt.tour
COMMENT: Optimal solution for Aleatorio1620390973_11 (140.2979502020327)
TYPE: TOUR
DIMENSION: 11
TOUR_SECTION
1 3 4 5 7 8 9 10 11 6 2
-1
EOF
